certificates/rado_a10_c166_N29.drat
17 -27 -28 -29 0
-16 24 -17 -29 0
-17 -28 -29 0
-28 -29 0
d -17 -28 -29 0
17 27 -29 0
27 -29 0
d 17 27 -29 0
-16 -17 -29 0
d -16 24 -17 -29 0
-17 -29 0
d -16 -17 -29 0
-29 0
16 17 0
17 0
-13 0
-21 0
15 0
-11 0
-19 0
-1 0
5 0
16 0
25 0
-9 0
-12 0
-10 0
-20 0
-22 0
-23 0
18 0
-4 0
-3 0
-14 0
-2 0
-24 0
28 0
0
